! xtb2 opt
%maxcore     1000
%pal nprocs   4 end
* xyz   0   1
C      0.84057900    1.06035300   -0.28107600
C      1.38051700   -0.17545900    0.04895600
C      0.53497100   -1.24207700    0.33168100
C     -0.84057900   -1.06035400    0.28107400
C     -1.38051700    0.17545700   -0.04895900
C     -0.53497100    1.24207500   -0.33168200
I     -2.12140200   -2.67627600    0.71010500
I      2.12140000    2.67628400   -0.71009500
H      2.45144300   -0.31628100    0.08818600
H      0.95461300   -2.20443200    0.58865600
H     -2.45144200    0.31628000   -0.08819100
H     -0.95461300    2.20443100   -0.58865400
*
